 
data_zq-48 
 
_audit_creation_method            SHELXL-97 
_chemical_name_systematic 
; 
 ? 
; 
_chemical_name_common             ? 
_chemical_melting_point           ? 
_chemical_formula_moiety          ? 
_chemical_formula_sum 
 'C24 H32 Cl3 Cu Gd N2 O6' 
_chemical_formula_weight          771.67 
 
loop_ 
 _atom_type_symbol 
 _atom_type_description 
 _atom_type_scat_dispersion_real 
 _atom_type_scat_dispersion_imag 
 _atom_type_scat_source 
 'C'  'C'   0.0033   0.0016 
 'International Tables Vol C Tables 4.2.6.8 and 6.1.1.4' 
 'H'  'H'   0.0000   0.0000 
 'International Tables Vol C Tables 4.2.6.8 and 6.1.1.4' 
 'Cl'  'Cl'   0.1484   0.1585 
 'International Tables Vol C Tables 4.2.6.8 and 6.1.1.4' 
 'Cu'  'Cu'   0.3201   1.2651 
 'International Tables Vol C Tables 4.2.6.8 and 6.1.1.4' 
 'Gd'  'Gd'  -0.1653   3.9035 
 'International Tables Vol C Tables 4.2.6.8 and 6.1.1.4' 
 'N'  'N'   0.0061   0.0033 
 'International Tables Vol C Tables 4.2.6.8 and 6.1.1.4' 
 'O'  'O'   0.0106   0.0060 
 'International Tables Vol C Tables 4.2.6.8 and 6.1.1.4' 
 
_symmetry_cell_setting            monoclinic
_symmetry_space_group_name_H-M    P2(1)/c
 
loop_ 
 _symmetry_equiv_pos_as_xyz 
 'x, y, z' 
 '-x, y+1/2, -z+1/2' 
 '-x, -y, -z' 
 'x, -y-1/2, z-1/2' 
 
_cell_length_a                    7.5094(15) 
_cell_length_b                    26.734(5) 
_cell_length_c                    14.920(5) 
_cell_angle_alpha                 90.00 
_cell_angle_beta                  110.12(3) 
_cell_angle_gamma                 90.00 
_cell_volume                      2812.5(12) 
_cell_formula_units_Z             4 
_cell_measurement_temperature     293(2) 
_cell_measurement_reflns_used     ? 
_cell_measurement_theta_min       ? 
_cell_measurement_theta_max       ? 
 
_exptl_crystal_description        ? 
_exptl_crystal_colour             ? 
_exptl_crystal_size_max           0.24 
_exptl_crystal_size_mid           0.22 
_exptl_crystal_size_min           0.16 
_exptl_crystal_density_meas       ? 
_exptl_crystal_density_diffrn     1.822 
_exptl_crystal_density_method     'not measured' 
_exptl_crystal_F_000              1528 
_exptl_absorpt_coefficient_mu     3.420 
_exptl_absorpt_correction_type    multi-scan
_exptl_absorpt_correction_T_min   0.458
_exptl_absorpt_correction_T_max   0.579
_exptl_absorpt_process_details    'SADASB'
 
_exptl_special_details 
; 
 ? 
; 
 
_diffrn_ambient_temperature       293(2) 
_diffrn_radiation_wavelength      0.71073 
_diffrn_radiation_type            MoK\a 
_diffrn_radiation_source          'fine-focus sealed tube' 
_diffrn_radiation_monochromator   graphite 
_diffrn_measurement_device_type   ? 
_diffrn_measurement_method        ? 
_diffrn_detector_area_resol_mean  ? 
_diffrn_standards_number          ? 
_diffrn_standards_interval_count  ? 
_diffrn_standards_interval_time   ? 
_diffrn_standards_decay_%         ? 
_diffrn_reflns_number             26762 
_diffrn_reflns_av_R_equivalents   0.0282 
_diffrn_reflns_av_sigmaI/netI     0.0236 
_diffrn_reflns_limit_h_min        -9 
_diffrn_reflns_limit_h_max        8 
_diffrn_reflns_limit_k_min        -34 
_diffrn_reflns_limit_k_max        34 
_diffrn_reflns_limit_l_min        -19 
_diffrn_reflns_limit_l_max        19 
_diffrn_reflns_theta_min          3.01 
_diffrn_reflns_theta_max          27.48 
_reflns_number_total              6413 
_reflns_number_gt                 5736 
_reflns_threshold_expression      >2sigma(I) 
 
_computing_data_collection        ? 
_computing_cell_refinement        ? 
_computing_data_reduction         ? 
_computing_structure_solution     'SHELXS-97 (Sheldrick, 1990)' 
_computing_structure_refinement   'SHELXL-97 (Sheldrick, 1997)' 
_computing_molecular_graphics     ? 
_computing_publication_material   ? 
 
_refine_special_details 
; 
 Refinement of F^2^ against ALL reflections.  The weighted R-factor wR and 
 goodness of fit S are based on F^2^, conventional R-factors R are based 
 on F, with F set to zero for negative F^2^. The threshold expression of 
 F^2^ > 2sigma(F^2^) is used only for calculating R-factors(gt) etc. and is 
 not relevant to the choice of reflections for refinement.  R-factors based 
 on F^2^ are statistically about twice as large as those based on F, and R- 
 factors based on ALL data will be even larger. 
; 
 
_refine_ls_structure_factor_coef  Fsqd  
_refine_ls_matrix_type            full 
_refine_ls_weighting_scheme       calc  
_refine_ls_weighting_details 
 'calc w=1/[\s^2^(Fo^2^)+(0.0209P)^2^+5.4081P] where P=(Fo^2^+2Fc^2^)/3' 
_atom_sites_solution_primary      direct 
_atom_sites_solution_secondary    difmap 
_atom_sites_solution_hydrogens    geom 
_refine_ls_hydrogen_treatment     constr 
_refine_ls_extinction_method      none 
_refine_ls_extinction_coef        ? 
_refine_ls_number_reflns          6413 
_refine_ls_number_parameters      340 
_refine_ls_number_restraints      0 
_refine_ls_R_factor_all           0.0344 
_refine_ls_R_factor_gt            0.0288 
_refine_ls_wR_factor_ref          0.0655 
_refine_ls_wR_factor_gt           0.0635 
_refine_ls_goodness_of_fit_ref    1.054 
_refine_ls_restrained_S_all       1.054 
_refine_ls_shift/su_max           0.004 
_refine_ls_shift/su_mean          0.000 
 
loop_ 
 _atom_site_label 
 _atom_site_type_symbol 
 _atom_site_fract_x 
 _atom_site_fract_y 
 _atom_site_fract_z 
 _atom_site_U_iso_or_equiv 
 _atom_site_adp_type 
 _atom_site_occupancy 
 _atom_site_symmetry_multiplicity 
 _atom_site_calc_flag 
 _atom_site_refinement_flags 
 _atom_site_disorder_assembly 
 _atom_site_disorder_group 
Gd1 Gd 0.71525(2) 0.826461(6) 0.735197(11) 0.03104(5) Uani 1 1 d . . . 
Cu1 Cu 0.87083(6) 0.947195(14) 0.75862(3) 0.03716(10) Uani 1 1 d . . . 
Cl1 Cl 0.55447(14) 0.73928(3) 0.74183(7) 0.0490(2) Uani 1 1 d . . . 
Cl2 Cl 1.00234(15) 0.78443(4) 0.69516(8) 0.0576(3) Uani 1 1 d . . . 
Cl3 Cl 0.57971(15) 0.97026(3) 0.81408(8) 0.0506(2) Uani 1 1 d . . . 
C1 C 0.6837(5) 0.91092(13) 0.5644(2) 0.0374(7) Uani 1 1 d . . . 
C2 C 0.6126(5) 0.87085(14) 0.5028(2) 0.0386(7) Uani 1 1 d . . . 
C3 C 0.5574(6) 0.87634(16) 0.4050(3) 0.0502(9) Uani 1 1 d . . . 
H3 H 0.5114 0.8491 0.3648 0.060 Uiso 1 1 calc R . . 
C4 C 0.5716(7) 0.92304(18) 0.3675(3) 0.0607(11) Uani 1 1 d . . . 
H4 H 0.5304 0.9274 0.3017 0.073 Uiso 1 1 calc R . . 
C5 C 0.6454(7) 0.96268(17) 0.4261(3) 0.0578(11) Uani 1 1 d . . . 
H5 H 0.6559 0.9935 0.3996 0.069 Uiso 1 1 calc R . . 
C6 C 0.7060(6) 0.95771(14) 0.5261(3) 0.0450(8) Uani 1 1 d . . . 
C7 C 0.7889(7) 1.00104(15) 0.5832(3) 0.0615(12) Uani 1 1 d . . . 
H7 H 0.7893 1.0308 0.5509 0.074 Uiso 1 1 calc R . . 
C8 C 0.9410(12) 1.04673(18) 0.7296(4) 0.109(3) Uani 1 1 d . . . 
H8 H 0.8394 1.0560 0.7536 0.131 Uiso 1 1 calc R . . 
C9 C 0.9614(8) 1.09375(15) 0.6791(3) 0.0635(12) Uani 1 1 d . . . 
H9A H 1.0413 1.0870 0.6414 0.076 Uiso 1 1 calc R . . 
H9B H 0.8376 1.1038 0.6357 0.076 Uiso 1 1 calc R . . 
C10 C 1.0456(15) 1.1357(2) 0.7466(5) 0.142(4) Uani 1 1 d . . . 
H10A H 1.0964 1.1599 0.7133 0.171 Uiso 1 1 calc R . . 
H10B H 0.9434 1.1521 0.7611 0.171 Uiso 1 1 calc R . . 
C11 C 1.1876(8) 1.12447(17) 0.8327(5) 0.0862(19) Uani 1 1 d . . . 
H11A H 1.1916 1.1516 0.8766 0.103 Uiso 1 1 calc R . . 
H11B H 1.3073 1.1250 0.8215 0.103 Uiso 1 1 calc R . . 
C12 C 1.1795(6) 1.07585(14) 0.8838(3) 0.0518(10) Uani 1 1 d . . . 
H12A H 1.3071 1.0657 0.9219 0.062 Uiso 1 1 calc R . . 
H12B H 1.1085 1.0810 0.9264 0.062 Uiso 1 1 calc R . . 
C13 C 1.0871(8) 1.03532(15) 0.8136(4) 0.0830(19) Uani 1 1 d . . . 
H13 H 1.1889 1.0276 0.7887 0.100 Uiso 1 1 calc R . . 
C14 C 1.1637(5) 0.97037(12) 0.9352(3) 0.0399(8) Uani 1 1 d . . . 
H14 H 1.2491 0.9929 0.9750 0.048 Uiso 1 1 calc R . . 
C15 C 1.1572(5) 0.92033(12) 0.9726(2) 0.0329(7) Uani 1 1 d . . . 
C16 C 1.2805(5) 0.91025(13) 1.0658(2) 0.0391(8) Uani 1 1 d . . . 
H16 H 1.3563 0.9358 1.1016 0.047 Uiso 1 1 calc R . . 
C17 C 1.2908(5) 0.86365(14) 1.1047(3) 0.0447(8) Uani 1 1 d . . . 
H17 H 1.3742 0.8577 1.1663 0.054 Uiso 1 1 calc R . . 
C18 C 1.1770(5) 0.82486(13) 1.0529(3) 0.0414(8) Uani 1 1 d . . . 
H18 H 1.1838 0.7932 1.0797 0.050 Uiso 1 1 calc R . . 
C19 C 1.0551(5) 0.83387(11) 0.9619(2) 0.0317(6) Uani 1 1 d . . . 
C20 C 1.0439(4) 0.88136(11) 0.9194(2) 0.0288(6) Uani 1 1 d . . . 
C21 C 0.9752(7) 0.74746(14) 0.9341(4) 0.0655(13) Uani 1 1 d . . . 
H21A H 1.1039 0.7392 0.9416 0.098 Uiso 1 1 calc R . . 
H21B H 0.8906 0.7257 0.8874 0.098 Uiso 1 1 calc R . . 
H21C H 0.9560 0.7434 0.9940 0.098 Uiso 1 1 calc R . . 
C22 C 0.5259(8) 0.78382(17) 0.4938(3) 0.0686(14) Uani 1 1 d . . . 
H22A H 0.3991 0.7908 0.4521 0.103 Uiso 1 1 calc R . . 
H22B H 0.5239 0.7565 0.5353 0.103 Uiso 1 1 calc R . . 
H22C H 0.6029 0.7750 0.4565 0.103 Uiso 1 1 calc R . . 
C23 C 0.2506(7) 0.8827(2) 0.6226(4) 0.0796(16) Uani 1 1 d . . . 
H23A H 0.1984 0.8944 0.6691 0.119 Uiso 1 1 calc R . . 
H23B H 0.1495 0.8751 0.5642 0.119 Uiso 1 1 calc R . . 
H23C H 0.3301 0.9082 0.6109 0.119 Uiso 1 1 calc R . . 
C24 C 0.4517(8) 0.84236(18) 0.8876(4) 0.0696(14) Uani 1 1 d . . . 
H24A H 0.3380 0.8613 0.8580 0.104 Uiso 1 1 calc R . . 
H24B H 0.4924 0.8466 0.9556 0.104 Uiso 1 1 calc R . . 
H24C H 0.4270 0.8076 0.8722 0.104 Uiso 1 1 calc R . . 
N1 N 0.8613(6) 1.00201(11) 0.6737(2) 0.0553(9) Uani 1 1 d . . . 
N2 N 1.0628(4) 0.98583(10) 0.8530(2) 0.0398(7) Uani 1 1 d . . . 
O1 O 0.7277(4) 0.90218(9) 0.65746(16) 0.0421(6) Uani 1 1 d . . . 
O2 O 0.6029(4) 0.82703(9) 0.54960(17) 0.0471(6) Uani 1 1 d . . . 
O3 O 0.9294(3) 0.88562(8) 0.82933(15) 0.0330(5) Uani 1 1 d . . . 
O4 O 0.9380(3) 0.79817(8) 0.90318(16) 0.0368(5) Uani 1 1 d . . . 
O5 O 0.5954(4) 0.85932(9) 0.85388(19) 0.0461(6) Uani 1 1 d . . . 
H5A H 0.5863 0.8902 0.8487 0.055 Uiso 1 1 d R . . 
O6 O 0.3603(4) 0.83880(11) 0.6574(2) 0.0580(7) Uani 1 1 d . . . 
H6 H 0.2837 0.8203 0.6694 0.070 Uiso 1 1 d R . . 
 
loop_ 
 _atom_site_aniso_label 
 _atom_site_aniso_U_11 
 _atom_site_aniso_U_22 
 _atom_site_aniso_U_33 
 _atom_site_aniso_U_23 
 _atom_site_aniso_U_13 
 _atom_site_aniso_U_12 
Gd1 0.03604(9) 0.02886(8) 0.02697(8) -0.00356(6) 0.00922(6) -0.00565(7) 
Cu1 0.0483(2) 0.02949(19) 0.0277(2) 0.00121(15) 0.00543(17) -0.00880(18) 
Cl1 0.0524(5) 0.0338(4) 0.0548(5) -0.0038(4) 0.0107(4) -0.0130(4) 
Cl2 0.0503(6) 0.0684(6) 0.0610(6) -0.0165(5) 0.0279(5) -0.0020(5) 
Cl3 0.0546(6) 0.0352(4) 0.0637(6) -0.0027(4) 0.0226(5) 0.0010(4) 
C1 0.0403(18) 0.0447(18) 0.0253(15) 0.0011(13) 0.0088(14) 0.0000(15) 
C2 0.0357(18) 0.0477(19) 0.0309(17) -0.0020(14) 0.0095(14) -0.0017(15) 
C3 0.053(2) 0.064(2) 0.0292(18) -0.0078(16) 0.0090(16) -0.005(2) 
C4 0.072(3) 0.077(3) 0.0277(19) 0.0057(19) 0.0105(19) -0.001(2) 
C5 0.077(3) 0.061(2) 0.034(2) 0.0102(18) 0.016(2) -0.001(2) 
C6 0.056(2) 0.0440(19) 0.0315(18) 0.0036(14) 0.0105(16) -0.0020(17) 
C7 0.100(4) 0.044(2) 0.040(2) 0.0097(17) 0.023(2) -0.012(2) 
C8 0.209(8) 0.046(3) 0.045(3) 0.005(2) 0.010(4) -0.047(4) 
C9 0.085(3) 0.039(2) 0.066(3) 0.0109(19) 0.027(3) -0.010(2) 
C10 0.282(12) 0.048(3) 0.075(4) 0.005(3) 0.033(6) -0.056(5) 
C11 0.074(3) 0.040(2) 0.116(5) 0.008(3) -0.005(3) -0.022(2) 
C12 0.055(2) 0.0379(19) 0.064(3) -0.0066(17) 0.022(2) -0.0129(18) 
C13 0.090(4) 0.037(2) 0.078(3) 0.017(2) -0.026(3) -0.028(2) 
C14 0.0365(18) 0.0331(16) 0.0422(19) -0.0077(14) 0.0034(15) -0.0056(14) 
C15 0.0311(16) 0.0344(16) 0.0307(16) -0.0042(12) 0.0075(13) -0.0024(13) 
C16 0.0357(18) 0.0420(18) 0.0325(17) -0.0074(14) 0.0026(14) -0.0035(15) 
C17 0.044(2) 0.050(2) 0.0300(17) -0.0003(15) -0.0008(15) 0.0006(17) 
C18 0.045(2) 0.0391(18) 0.0346(18) 0.0040(14) 0.0069(15) 0.0010(16) 
C19 0.0318(16) 0.0326(15) 0.0300(15) -0.0038(12) 0.0096(13) -0.0012(13) 
C20 0.0290(15) 0.0310(14) 0.0262(14) -0.0036(11) 0.0093(12) 0.0014(12) 
C21 0.067(3) 0.0302(18) 0.076(3) 0.0034(18) -0.005(2) 0.0006(19) 
C22 0.092(4) 0.062(3) 0.050(3) -0.022(2) 0.022(2) -0.034(3) 
C23 0.055(3) 0.077(3) 0.101(4) 0.032(3) 0.020(3) 0.012(3) 
C24 0.088(4) 0.062(3) 0.085(3) -0.012(2) 0.063(3) -0.013(3) 
N1 0.091(3) 0.0342(15) 0.0358(17) 0.0021(12) 0.0151(17) -0.0160(17) 
N2 0.0404(16) 0.0288(13) 0.0428(16) 0.0004(12) 0.0047(13) -0.0065(12) 
O1 0.0615(16) 0.0369(12) 0.0240(11) -0.0001(9) 0.0096(11) -0.0104(11) 
O2 0.0606(17) 0.0458(14) 0.0302(12) -0.0083(10) 0.0097(12) -0.0136(12) 
O3 0.0390(12) 0.0289(11) 0.0252(10) -0.0006(8) 0.0034(9) -0.0044(9) 
O4 0.0431(13) 0.0273(11) 0.0347(12) -0.0011(9) 0.0067(10) -0.0014(10) 
O5 0.0530(16) 0.0358(12) 0.0578(16) -0.0044(11) 0.0297(13) -0.0020(11) 
O6 0.0461(16) 0.0603(17) 0.0641(19) 0.0151(14) 0.0144(14) -0.0031(14) 
 
_geom_special_details 
; 
 All esds (except the esd in the dihedral angle between two l.s. planes) 
 are estimated using the full covariance matrix.  The cell esds are taken 
 into account individually in the estimation of esds in distances, angles 
 and torsion angles; correlations between esds in cell parameters are only 
 used when they are defined by crystal symmetry.  An approximate (isotropic) 
 treatment of cell esds is used for estimating esds involving l.s. planes. 
; 
 
loop_ 
 _geom_bond_atom_site_label_1 
 _geom_bond_atom_site_label_2 
 _geom_bond_distance 
 _geom_bond_site_symmetry_2 
 _geom_bond_publ_flag 
Gd1 O3 2.347(2) . ? 
Gd1 O1 2.351(2) . ? 
Gd1 O5 2.411(3) . ? 
Gd1 O6 2.536(3) . ? 
Gd1 O4 2.601(2) . ? 
Gd1 O2 2.602(3) . ? 
Gd1 Cl1 2.6424(10) . ? 
Gd1 Cl2 2.6746(11) . ? 
Gd1 Cu1 3.4094(7) . ? 
Cu1 N1 1.922(3) . ? 
Cu1 O3 1.923(2) . ? 
Cu1 N2 1.932(3) . ? 
Cu1 O1 1.940(2) . ? 
Cu1 Cl3 2.6624(12) . ? 
C1 O1 1.332(4) . ? 
C1 C2 1.393(5) . ? 
C1 C6 1.409(5) . ? 
C2 O2 1.379(4) . ? 
C2 C3 1.381(5) . ? 
C3 C4 1.387(6) . ? 
C3 H3 0.9300 . ? 
C4 C5 1.364(6) . ? 
C4 H4 0.9300 . ? 
C5 C6 1.408(5) . ? 
C5 H5 0.9300 . ? 
C6 C7 1.446(5) . ? 
C7 N1 1.271(5) . ? 
C7 H7 0.9300 . ? 
C8 C13 1.387(7) . ? 
C8 N1 1.462(5) . ? 
C8 C9 1.500(6) . ? 
C8 H8 0.9800 . ? 
C9 C10 1.495(7) . ? 
C9 H9A 0.9700 . ? 
C9 H9B 0.9700 . ? 
C10 C11 1.392(9) . ? 
C10 H10A 0.9700 . ? 
C10 H10B 0.9700 . ? 
C11 C12 1.518(6) . ? 
C11 H11A 0.9700 . ? 
C11 H11B 0.9700 . ? 
C12 C13 1.501(6) . ? 
C12 H12A 0.9700 . ? 
C12 H12B 0.9700 . ? 
C13 N2 1.484(5) . ? 
C13 H13 0.9800 . ? 
C14 N2 1.269(4) . ? 
C14 C15 1.456(5) . ? 
C14 H14 0.9300 . ? 
C15 C20 1.405(4) . ? 
C15 C16 1.407(5) . ? 
C16 C17 1.365(5) . ? 
C16 H16 0.9300 . ? 
C17 C18 1.396(5) . ? 
C17 H17 0.9300 . ? 
C18 C19 1.372(5) . ? 
C18 H18 0.9300 . ? 
C19 O4 1.387(4) . ? 
C19 C20 1.409(4) . ? 
C20 O3 1.328(4) . ? 
C21 O4 1.428(4) . ? 
C21 H21A 0.9600 . ? 
C21 H21B 0.9600 . ? 
C21 H21C 0.9600 . ? 
C22 O2 1.425(4) . ? 
C22 H22A 0.9600 . ? 
C22 H22B 0.9600 . ? 
C22 H22C 0.9600 . ? 
C23 O6 1.426(5) . ? 
C23 H23A 0.9600 . ? 
C23 H23B 0.9600 . ? 
C23 H23C 0.9600 . ? 
C24 O5 1.414(5) . ? 
C24 H24A 0.9600 . ? 
C24 H24B 0.9600 . ? 
C24 H24C 0.9600 . ? 
O5 H5A 0.8304 . ? 
O6 H6 0.8233 . ? 
 
loop_ 
 _geom_angle_atom_site_label_1 
 _geom_angle_atom_site_label_2 
 _geom_angle_atom_site_label_3 
 _geom_angle 
 _geom_angle_site_symmetry_1 
 _geom_angle_site_symmetry_3 
 _geom_angle_publ_flag 
O3 Gd1 O1 65.14(8) . . ? 
O3 Gd1 O5 70.55(8) . . ? 
O1 Gd1 O5 97.86(9) . . ? 
O3 Gd1 O6 125.61(9) . . ? 
O1 Gd1 O6 82.88(9) . . ? 
O5 Gd1 O6 71.92(10) . . ? 
O3 Gd1 O4 62.50(7) . . ? 
O1 Gd1 O4 127.18(8) . . ? 
O5 Gd1 O4 71.16(9) . . ? 
O6 Gd1 O4 134.81(9) . . ? 
O3 Gd1 O2 122.51(8) . . ? 
O1 Gd1 O2 61.53(8) . . ? 
O5 Gd1 O2 135.48(9) . . ? 
O6 Gd1 O2 66.88(10) . . ? 
O4 Gd1 O2 153.20(8) . . ? 
O3 Gd1 Cl1 143.13(6) . . ? 
O1 Gd1 Cl1 150.95(6) . . ? 
O5 Gd1 Cl1 90.18(6) . . ? 
O6 Gd1 Cl1 73.14(7) . . ? 
O4 Gd1 Cl1 81.84(6) . . ? 
O2 Gd1 Cl1 93.44(6) . . ? 
O3 Gd1 Cl2 88.72(6) . . ? 
O1 Gd1 Cl2 94.58(7) . . ? 
O5 Gd1 Cl2 148.24(7) . . ? 
O6 Gd1 Cl2 138.89(8) . . ? 
O4 Gd1 Cl2 78.03(6) . . ? 
O2 Gd1 Cl2 75.88(7) . . ? 
Cl1 Gd1 Cl2 92.96(4) . . ? 
O3 Gd1 Cu1 32.91(5) . . ? 
O1 Gd1 Cu1 33.38(6) . . ? 
O5 Gd1 Cu1 77.35(6) . . ? 
O6 Gd1 Cu1 101.12(7) . . ? 
O4 Gd1 Cu1 95.31(5) . . ? 
O2 Gd1 Cu1 94.46(6) . . ? 
Cl1 Gd1 Cu1 167.44(3) . . ? 
Cl2 Gd1 Cu1 98.43(3) . . ? 
N1 Cu1 O3 164.55(14) . . ? 
N1 Cu1 N2 85.52(14) . . ? 
O3 Cu1 N2 94.89(11) . . ? 
N1 Cu1 O1 94.32(12) . . ? 
O3 Cu1 O1 81.77(10) . . ? 
N2 Cu1 O1 166.77(13) . . ? 
N1 Cu1 Cl3 100.36(13) . . ? 
O3 Cu1 Cl3 94.89(8) . . ? 
N2 Cu1 Cl3 97.83(10) . . ? 
O1 Cu1 Cl3 95.21(9) . . ? 
N1 Cu1 Gd1 136.09(10) . . ? 
O3 Cu1 Gd1 41.54(6) . . ? 
N2 Cu1 Gd1 136.42(8) . . ? 
O1 Cu1 Gd1 41.80(7) . . ? 
Cl3 Cu1 Gd1 87.82(2) . . ? 
O1 C1 C2 117.0(3) . . ? 
O1 C1 C6 123.9(3) . . ? 
C2 C1 C6 119.1(3) . . ? 
O2 C2 C3 125.2(3) . . ? 
O2 C2 C1 113.2(3) . . ? 
C3 C2 C1 121.6(3) . . ? 
C2 C3 C4 119.0(4) . . ? 
C2 C3 H3 120.5 . . ? 
C4 C3 H3 120.5 . . ? 
C5 C4 C3 120.8(4) . . ? 
C5 C4 H4 119.6 . . ? 
C3 C4 H4 119.6 . . ? 
C4 C5 C6 121.2(4) . . ? 
C4 C5 H5 119.4 . . ? 
C6 C5 H5 119.4 . . ? 
C5 C6 C1 118.3(3) . . ? 
C5 C6 C7 117.7(3) . . ? 
C1 C6 C7 124.0(3) . . ? 
N1 C7 C6 125.6(3) . . ? 
N1 C7 H7 117.2 . . ? 
C6 C7 H7 117.2 . . ? 
C13 C8 N1 112.1(4) . . ? 
C13 C8 C9 116.9(5) . . ? 
N1 C8 C9 119.4(4) . . ? 
C13 C8 H8 101.4 . . ? 
N1 C8 H8 101.4 . . ? 
C9 C8 H8 101.4 . . ? 
C10 C9 C8 112.5(4) . . ? 
C10 C9 H9A 109.1 . . ? 
C8 C9 H9A 109.1 . . ? 
C10 C9 H9B 109.1 . . ? 
C8 C9 H9B 109.1 . . ? 
H9A C9 H9B 107.8 . . ? 
C11 C10 C9 118.2(5) . . ? 
C11 C10 H10A 107.8 . . ? 
C9 C10 H10A 107.8 . . ? 
C11 C10 H10B 107.8 . . ? 
C9 C10 H10B 107.8 . . ? 
H10A C10 H10B 107.1 . . ? 
C10 C11 C12 119.9(4) . . ? 
C10 C11 H11A 107.3 . . ? 
C12 C11 H11A 107.3 . . ? 
C10 C11 H11B 107.3 . . ? 
C12 C11 H11B 107.3 . . ? 
H11A C11 H11B 106.9 . . ? 
C13 C12 C11 110.9(4) . . ? 
C13 C12 H12A 109.5 . . ? 
C11 C12 H12A 109.5 . . ? 
C13 C12 H12B 109.5 . . ? 
C11 C12 H12B 109.5 . . ? 
H12A C12 H12B 108.0 . . ? 
C8 C13 N2 112.8(4) . . ? 
C8 C13 C12 120.3(4) . . ? 
N2 C13 C12 117.2(4) . . ? 
C8 C13 H13 100.5 . . ? 
N2 C13 H13 100.5 . . ? 
C12 C13 H13 100.5 . . ? 
N2 C14 C15 125.5(3) . . ? 
N2 C14 H14 117.2 . . ? 
C15 C14 H14 117.2 . . ? 
C20 C15 C16 118.7(3) . . ? 
C20 C15 C14 124.0(3) . . ? 
C16 C15 C14 117.2(3) . . ? 
C17 C16 C15 121.1(3) . . ? 
C17 C16 H16 119.4 . . ? 
C15 C16 H16 119.4 . . ? 
C16 C17 C18 120.5(3) . . ? 
C16 C17 H17 119.7 . . ? 
C18 C17 H17 119.7 . . ? 
C19 C18 C17 119.4(3) . . ? 
C19 C18 H18 120.3 . . ? 
C17 C18 H18 120.3 . . ? 
C18 C19 O4 124.5(3) . . ? 
C18 C19 C20 121.3(3) . . ? 
O4 C19 C20 114.1(3) . . ? 
O3 C20 C15 124.3(3) . . ? 
O3 C20 C19 116.8(3) . . ? 
C15 C20 C19 118.9(3) . . ? 
O4 C21 H21A 109.5 . . ? 
O4 C21 H21B 109.5 . . ? 
H21A C21 H21B 109.5 . . ? 
O4 C21 H21C 109.5 . . ? 
H21A C21 H21C 109.5 . . ? 
H21B C21 H21C 109.5 . . ? 
O2 C22 H22A 109.5 . . ? 
O2 C22 H22B 109.5 . . ? 
H22A C22 H22B 109.5 . . ? 
O2 C22 H22C 109.5 . . ? 
H22A C22 H22C 109.5 . . ? 
H22B C22 H22C 109.5 . . ? 
O6 C23 H23A 109.5 . . ? 
O6 C23 H23B 109.5 . . ? 
H23A C23 H23B 109.5 . . ? 
O6 C23 H23C 109.5 . . ? 
H23A C23 H23C 109.5 . . ? 
H23B C23 H23C 109.5 . . ? 
O5 C24 H24A 109.5 . . ? 
O5 C24 H24B 109.5 . . ? 
H24A C24 H24B 109.5 . . ? 
O5 C24 H24C 109.5 . . ? 
H24A C24 H24C 109.5 . . ? 
H24B C24 H24C 109.5 . . ? 
C7 N1 C8 124.3(3) . . ? 
C7 N1 Cu1 126.2(3) . . ? 
C8 N1 Cu1 109.4(3) . . ? 
C14 N2 C13 124.0(3) . . ? 
C14 N2 Cu1 125.3(2) . . ? 
C13 N2 Cu1 110.5(2) . . ? 
C1 O1 Cu1 125.0(2) . . ? 
C1 O1 Gd1 128.9(2) . . ? 
Cu1 O1 Gd1 104.81(10) . . ? 
C2 O2 C22 118.3(3) . . ? 
C2 O2 Gd1 119.33(19) . . ? 
C22 O2 Gd1 122.3(2) . . ? 
C20 O3 Cu1 125.11(19) . . ? 
C20 O3 Gd1 128.29(19) . . ? 
Cu1 O3 Gd1 105.56(9) . . ? 
C19 O4 C21 116.0(3) . . ? 
C19 O4 Gd1 117.82(18) . . ? 
C21 O4 Gd1 125.2(2) . . ? 
C24 O5 Gd1 131.9(2) . . ? 
C24 O5 H5A 107.7 . . ? 
Gd1 O5 H5A 109.5 . . ? 
C23 O6 Gd1 131.2(3) . . ? 
C23 O6 H6 102.3 . . ? 
Gd1 O6 H6 121.7 . . ? 
 
loop_ 
 _geom_hbond_atom_site_label_D 
 _geom_hbond_atom_site_label_H 
 _geom_hbond_atom_site_label_A 
 _geom_hbond_distance_DH 
 _geom_hbond_distance_HA 
 _geom_hbond_distance_DA 
 _geom_hbond_angle_DHA 
 _geom_hbond_site_symmetry_A 
O5 H5A Cl3  0.83 2.20 3.019(3) 170.1 . 
O6 H6 Cl2  0.82 2.47 3.271(3) 165.2 1_455 
 
_diffrn_measured_fraction_theta_max    0.993 
_diffrn_reflns_theta_full              27.48 
_diffrn_measured_fraction_theta_full   0.993 
_refine_diff_density_max    1.225 
_refine_diff_density_min   -1.255 
_refine_diff_density_rms    0.088 
